unsat
(:eliminated-vars     1
 :max-memory          18.37
 :memory              18.17
 :nlsat-conflicts     2
 :nlsat-learned-added 1
 :nlsat-propagations  8
 :nlsat-stages        2
 :num-allocs          11722
 :rlimit-count        14017
 :time                0.01
 :total-time          0.02)
